coords = array2d(1..24, 1..2, [133, 293, 477, 875, 181, 45, 736, 437, 168, 721,
    591, 792, 223, 107, 984, 63, 853, 31, 532, 507, 566, 4, 983, 186,
    620, 946, 896, 858, 436, 537, 378, 777, 183, 663, 389, 443, 121,
    742, 416, 948, 731, 21, 909, 710, 251, 191, 538, 166]);

n = 24;

